examples/simple_linear.lp
\* SMT到LP转换生成的线性程序 *\

Minimize
obj: 0

Subject To
c0: x >= -0
c1: y >= -0
c2: x + y <= 10
c3: 2 x + y >= 5

Bounds
y free
x free

General
y
x

End
